num_offers = 30;
num_halls = 10;
start=[60,16,9,35,65,26,24,7,19,29,4,26,25,47,24,35,13,46,18,40,9,7,34,29,4,74,14,45,52,58];
end=[89,37,25,85,90,98,44,41,66,38,64,98,45,53,33,50,34,99,99,75,66,20,84,88,70,84,67,64,59,63];
price=[2267,1032,1202,1786,2451,3926,767,527,988,300,2223,3459,1859,340,875,802,1763,2518,3564,967,2020,745,3263,2168,5833,530,2144,1034,243,155];
requirement=[947,979,463,353,795,939,971,489,717,916,414,966,811,822,503,962,449,811,667,817,466,912,814,383,384,365,552,275,323,853];
capacity=[352,215,950,515,840,803,395,975,671,739];
